RobustCbss/GLKH-1.1/TMP/mtspf.pid4331.atsp
NAME : mtspf.pid4331.gtsp
TYPE : ATSP
DIMENSION : 45
EDGE_WEIGHT_TYPE : EXPLICIT
EDGE_WEIGHT_FORMAT : FULL_MATRIX
EDGE_WEIGHT_SECTION
999999 5368709 5368709 5368709 5368709 5368715 5368714 5368715 5368716 5368726 5368727 5368728 5368727 5368738 5368737 5368736 5368737 5368740 5368739 5368738 5368739 5368735 5368734 5368733 5368734 5368733 5368732 5368731 5368732 5368722 5368721 5368720 5368721 5368729 5368728 5368729 5368730 5368731 5368732 5368731 5368730 5368718 5368719 5368718 5368717 
5368709 999999 5368709 5368709 5368709 5368739 5368738 5368739 5368740 5368730 5368731 5368730 5368729 5368758 5368759 5368758 5368757 5368762 5368761 5368760 5368761 5368743 5368744 5368743 5368742 5368751 5368750 5368749 5368750 5368728 5368729 5368730 5368729 5368727 5368726 5368727 5368728 5368749 5368750 5368749 5368748 5368734 5368735 5368734 5368733 
5368709 5368709 999999 5368709 5368709 5368749 5368748 5368749 5368750 5368746 5368747 5368748 5368747 5368716 5368717 5368718 5368717 5368718 5368719 5368720 5368719 5368743 5368742 5368741 5368742 5368731 5368732 5368733 5368732 5368750 5368751 5368752 5368751 5368761 5368760 5368761 5368762 5368739 5368740 5368741 5368740 5368742 5368741 5368742 5368743 
5368709 5368709 5368709 999999 5368709 5368733 5368732 5368733 5368734 5368714 5368715 5368714 5368713 5368744 5368745 5368744 5368743 5368748 5368747 5368746 5368747 5368727 5368728 5368727 5368726 5368735 5368734 5368733 5368734 5368718 5368719 5368720 5368719 5368731 5368730 5368731 5368732 5368747 5368748 5368747 5368746 5368722 5368723 5368722 5368721 
5368709 5368709 5368709 5368709 999999 5368718 5368717 5368718 5368719 5368729 5368730 5368731 5368730 5368735 5368734 5368733 5368734 5368739 5368738 5368737 5368738 5368738 5368737 5368736 5368737 5368730 5368729 5368728 5368729 5368727 5368728 5368727 5368728 5368734 5368733 5368734 5368735 5368728 5368729 5368728 5368727 5368719 5368718 5368719 5368720 
5368709 5368709 5368709 5368709 5368709 999999 0 10737418 10737418 5368733 5368734 5368735 5368734 5368745 5368744 5368743 5368744 5368747 5368746 5368745 5368746 5368742 5368741 5368740 5368741 5368740 5368739 5368738 5368739 5368727 5368726 5368725 5368726 5368734 5368733 5368734 5368735 5368730 5368731 5368730 5368729 5368725 5368724 5368725 5368724 
5368709 5368709 5368709 5368709 5368709 10737418 999999 0 10737418 5368732 5368733 5368734 5368733 5368744 5368743 5368742 5368743 5368746 5368745 5368744 5368745 5368741 5368740 5368739 5368740 5368739 5368738 5368737 5368738 5368726 5368725 5368724 5368725 5368733 5368732 5368733 5368734 5368729 5368730 5368729 5368728 5368724 5368723 5368724 5368723 
5368709 5368709 5368709 5368709 5368709 10737418 10737418 999999 0 5368731 5368732 5368733 5368732 5368743 5368742 5368741 5368742 5368745 5368744 5368743 5368744 5368740 5368739 5368738 5368739 5368738 5368737 5368736 5368737 5368725 5368724 5368723 5368724 5368732 5368731 5368732 5368733 5368728 5368729 5368728 5368727 5368723 5368722 5368723 5368722 
5368709 5368709 5368709 5368709 5368709 0 10737418 10737418 999999 5368732 5368733 5368734 5368733 5368744 5368743 5368742 5368743 5368746 5368745 5368744 5368745 5368741 5368740 5368739 5368740 5368739 5368738 5368737 5368738 5368726 5368725 5368724 5368725 5368733 5368732 5368733 5368734 5368729 5368730 5368729 5368728 5368724 5368723 5368724 5368723 
5368709 5368709 5368709 5368709 5368709 5368733 5368732 5368733 5368734 999999 0 10737418 10737418 5368740 5368741 5368740 5368739 5368744 5368743 5368742 5368743 5368725 5368726 5368725 5368724 5368731 5368732 5368731 5368730 5368718 5368719 5368718 5368717 5368735 5368734 5368735 5368736 5368745 5368746 5368745 5368744 5368722 5368723 5368722 5368721 
5368709 5368709 5368709 5368709 5368709 5368732 5368731 5368732 5368733 10737418 999999 0 10737418 5368739 5368740 5368739 5368738 5368743 5368742 5368741 5368742 5368726 5368727 5368726 5368725 5368730 5368731 5368730 5368729 5368719 5368720 5368719 5368718 5368736 5368735 5368736 5368737 5368744 5368745 5368744 5368743 5368723 5368724 5368723 5368722 
5368709 5368709 5368709 5368709 5368709 5368733 5368732 5368733 5368734 10737418 10737418 999999 0 5368740 5368741 5368740 5368739 5368744 5368743 5368742 5368743 5368727 5368728 5368727 5368726 5368731 5368732 5368731 5368730 5368720 5368721 5368720 5368719 5368737 5368736 5368737 5368738 5368745 5368746 5368745 5368744 5368724 5368725 5368724 5368723 
5368709 5368709 5368709 5368709 5368709 5368734 5368733 5368734 5368735 0 10737418 10737418 999999 5368741 5368742 5368741 5368740 5368745 5368744 5368743 5368744 5368726 5368727 5368726 5368725 5368732 5368733 5368732 5368731 5368719 5368720 5368719 5368718 5368736 5368735 5368736 5368737 5368746 5368747 5368746 5368745 5368723 5368724 5368723 5368722 
5368709 5368709 5368709 5368709 5368709 5368743 5368742 5368743 5368744 5368738 5368739 5368740 5368739 999999 0 10737418 10737418 5368722 5368723 5368724 5368723 5368735 5368734 5368733 5368734 5368723 5368724 5368725 5368724 5368744 5368743 5368744 5368745 5368755 5368754 5368755 5368756 5368741 5368742 5368743 5368742 5368736 5368735 5368736 5368737 
5368709 5368709 5368709 5368709 5368709 5368744 5368743 5368744 5368745 5368739 5368740 5368741 5368740 10737418 999999 0 10737418 5368723 5368724 5368725 5368724 5368736 5368735 5368734 5368735 5368724 5368725 5368726 5368725 5368745 5368744 5368745 5368746 5368756 5368755 5368756 5368757 5368742 5368743 5368744 5368743 5368737 5368736 5368737 5368738 
5368709 5368709 5368709 5368709 5368709 5368743 5368742 5368743 5368744 5368740 5368741 5368742 5368741 10737418 10737418 999999 0 5368722 5368723 5368724 5368723 5368737 5368736 5368735 5368736 5368725 5368726 5368727 5368726 5368744 5368745 5368746 5368745 5368755 5368754 5368755 5368756 5368741 5368742 5368743 5368742 5368736 5368735 5368736 5368737 
5368709 5368709 5368709 5368709 5368709 5368742 5368741 5368742 5368743 5368739 5368740 5368741 5368740 0 10737418 10737418 999999 5368721 5368722 5368723 5368722 5368736 5368735 5368734 5368735 5368724 5368725 5368726 5368725 5368743 5368744 5368745 5368744 5368754 5368753 5368754 5368755 5368740 5368741 5368742 5368741 5368735 5368734 5368735 5368736 
5368709 5368709 5368709 5368709 5368709 5368745 5368744 5368745 5368746 5368742 5368743 5368744 5368743 5368724 5368723 5368722 5368723 999999 0 10737418 10737418 5368743 5368742 5368741 5368742 5368731 5368732 5368733 5368732 5368746 5368747 5368748 5368747 5368757 5368756 5368757 5368758 5368731 5368732 5368733 5368732 5368738 5368737 5368738 5368739 
5368709 5368709 5368709 5368709 5368709 5368746 5368745 5368746 5368747 5368743 5368744 5368745 5368744 5368723 5368722 5368721 5368722 10737418 999999 0 10737418 5368742 5368741 5368740 5368741 5368730 5368731 5368732 5368731 5368747 5368748 5368749 5368748 5368758 5368757 5368758 5368759 5368732 5368733 5368734 5368733 5368739 5368738 5368739 5368740 
5368709 5368709 5368709 5368709 5368709 5368745 5368744 5368745 5368746 5368742 5368743 5368744 5368743 5368724 5368723 5368722 5368723 10737418 10737418 999999 0 5368743 5368742 5368741 5368742 5368731 5368732 5368733 5368732 5368746 5368747 5368748 5368747 5368757 5368756 5368757 5368758 5368731 5368732 5368733 5368732 5368738 5368737 5368738 5368739 
5368709 5368709 5368709 5368709 5368709 5368744 5368743 5368744 5368745 5368741 5368742 5368743 5368742 5368725 5368724 5368723 5368724 0 10737418 10737418 999999 5368742 5368741 5368740 5368741 5368732 5368733 5368732 5368733 5368745 5368746 5368747 5368746 5368756 5368755 5368756 5368757 5368730 5368731 5368732 5368731 5368737 5368736 5368737 5368738 
5368709 5368709 5368709 5368709 5368709 5368740 5368739 5368740 5368741 5368725 5368726 5368725 5368724 5368735 5368736 5368735 5368734 5368741 5368742 5368741 5368742 999999 0 10737418 10737418 5368722 5368721 5368720 5368721 5368729 5368730 5368729 5368728 5368746 5368745 5368746 5368747 5368752 5368753 5368752 5368751 5368731 5368732 5368731 5368730 
5368709 5368709 5368709 5368709 5368709 5368741 5368740 5368741 5368742 5368726 5368727 5368726 5368725 5368736 5368737 5368736 5368735 5368742 5368743 5368742 5368743 10737418 999999 0 10737418 5368721 5368722 5368721 5368720 5368730 5368731 5368730 5368729 5368747 5368746 5368747 5368748 5368753 5368754 5368753 5368752 5368732 5368733 5368732 5368731 
5368709 5368709 5368709 5368709 5368709 5368740 5368739 5368740 5368741 5368727 5368728 5368727 5368726 5368735 5368736 5368735 5368734 5368741 5368742 5368741 5368742 10737418 10737418 999999 0 5368722 5368721 5368720 5368721 5368731 5368732 5368731 5368730 5368746 5368745 5368746 5368747 5368752 5368753 5368752 5368751 5368731 5368732 5368731 5368730 
5368709 5368709 5368709 5368709 5368709 5368739 5368738 5368739 5368740 5368726 5368727 5368726 5368725 5368734 5368735 5368734 5368733 5368740 5368741 5368740 5368741 0 10737418 10737418 999999 5368721 5368720 5368719 5368720 5368730 5368731 5368730 5368729 5368745 5368744 5368745 5368746 5368751 5368752 5368751 5368750 5368730 5368731 5368730 5368729 
5368709 5368709 5368709 5368709 5368709 5368738 5368737 5368738 5368739 5368729 5368730 5368731 5368730 5368725 5368726 5368725 5368724 5368731 5368732 5368733 5368732 5368720 5368721 5368720 5368721 999999 0 10737418 10737418 5368735 5368736 5368737 5368736 5368746 5368745 5368746 5368747 5368744 5368745 5368744 5368743 5368727 5368726 5368727 5368728 
5368709 5368709 5368709 5368709 5368709 5368739 5368738 5368739 5368740 5368730 5368731 5368732 5368731 5368724 5368725 5368724 5368723 5368730 5368731 5368732 5368731 5368721 5368722 5368721 5368722 10737418 999999 0 10737418 5368736 5368737 5368738 5368737 5368747 5368746 5368747 5368748 5368745 5368746 5368745 5368744 5368728 5368727 5368728 5368729 
5368709 5368709 5368709 5368709 5368709 5368738 5368737 5368738 5368739 5368731 5368732 5368733 5368732 5368725 5368726 5368725 5368724 5368731 5368732 5368733 5368732 5368722 5368721 5368720 5368721 10737418 10737418 999999 0 5368735 5368736 5368737 5368736 5368746 5368745 5368746 5368747 5368744 5368745 5368744 5368743 5368727 5368726 5368727 5368728 
5368709 5368709 5368709 5368709 5368709 5368737 5368736 5368737 5368738 5368730 5368731 5368732 5368731 5368726 5368727 5368726 5368725 5368732 5368733 5368732 5368733 5368721 5368720 5368719 5368720 0 10737418 10737418 999999 5368734 5368735 5368736 5368735 5368745 5368744 5368745 5368746 5368743 5368744 5368743 5368742 5368726 5368725 5368726 5368727 
5368709 5368709 5368709 5368709 5368709 5368725 5368724 5368725 5368726 5368718 5368719 5368718 5368717 5368746 5368745 5368744 5368745 5368748 5368747 5368746 5368747 5368729 5368730 5368729 5368728 5368737 5368736 5368735 5368736 999999 0 10737418 10737418 5368729 5368728 5368729 5368730 5368741 5368742 5368741 5368740 5368720 5368721 5368720 5368719 
5368709 5368709 5368709 5368709 5368709 5368726 5368725 5368726 5368727 5368719 5368720 5368719 5368718 5368745 5368744 5368743 5368744 5368747 5368746 5368745 5368746 5368730 5368731 5368730 5368729 5368736 5368735 5368734 5368735 10737418 999999 0 10737418 5368728 5368727 5368728 5368729 5368742 5368743 5368742 5368741 5368719 5368720 5368719 5368718 
5368709 5368709 5368709 5368709 5368709 5368725 5368724 5368725 5368726 5368720 5368721 5368720 5368719 5368744 5368745 5368744 5368743 5368748 5368747 5368746 5368747 5368731 5368732 5368731 5368730 5368737 5368736 5368735 5368736 10737418 10737418 999999 0 5368727 5368726 5368727 5368728 5368741 5368742 5368741 5368740 5368720 5368721 5368720 5368719 
5368709 5368709 5368709 5368709 5368709 5368724 5368723 5368724 5368725 5368719 5368720 5368719 5368718 5368745 5368746 5368745 5368744 5368749 5368748 5368747 5368748 5368730 5368731 5368730 5368729 5368738 5368737 5368736 5368737 0 10737418 10737418 999999 5368728 5368727 5368728 5368729 5368740 5368741 5368740 5368739 5368721 5368722 5368721 5368720 
5368709 5368709 5368709 5368709 5368709 5368734 5368733 5368734 5368735 5368737 5368738 5368737 5368736 5368757 5368756 5368755 5368756 5368759 5368758 5368757 5368758 5368748 5368747 5368746 5368747 5368748 5368747 5368746 5368747 5368729 5368728 5368729 5368730 999999 0 10737418 10737418 5368744 5368745 5368744 5368743 5368731 5368732 5368731 5368730 
5368709 5368709 5368709 5368709 5368709 5368733 5368732 5368733 5368734 5368736 5368737 5368736 5368735 5368756 5368755 5368754 5368755 5368758 5368757 5368756 5368757 5368747 5368746 5368745 5368746 5368747 5368746 5368745 5368746 5368728 5368727 5368728 5368729 10737418 999999 0 10737418 5368743 5368744 5368743 5368742 5368730 5368731 5368730 5368729 
5368709 5368709 5368709 5368709 5368709 5368732 5368731 5368732 5368733 5368735 5368736 5368735 5368734 5368755 5368754 5368753 5368754 5368757 5368756 5368755 5368756 5368746 5368745 5368744 5368745 5368746 5368745 5368744 5368745 5368727 5368726 5368727 5368728 10737418 10737418 999999 0 5368742 5368743 5368742 5368741 5368729 5368730 5368729 5368728 
5368709 5368709 5368709 5368709 5368709 5368733 5368732 5368733 5368734 5368736 5368737 5368736 5368735 5368756 5368755 5368754 5368755 5368758 5368757 5368756 5368757 5368747 5368746 5368745 5368746 5368747 5368746 5368745 5368746 5368728 5368727 5368728 5368729 0 10737418 10737418 999999 5368743 5368744 5368743 5368742 5368730 5368731 5368730 5368729 
5368709 5368709 5368709 5368709 5368709 5368728 5368727 5368728 5368729 5368743 5368744 5368745 5368744 5368743 5368742 5368741 5368742 5368733 5368732 5368731 5368732 5368752 5368751 5368750 5368751 5368744 5368743 5368742 5368743 5368741 5368740 5368739 5368740 5368742 5368741 5368742 5368743 999999 0 10737418 10737418 5368735 5368734 5368735 5368736 
5368709 5368709 5368709 5368709 5368709 5368729 5368728 5368729 5368730 5368744 5368745 5368746 5368745 5368742 5368741 5368740 5368741 5368732 5368731 5368730 5368731 5368753 5368752 5368751 5368752 5368745 5368744 5368743 5368744 5368742 5368741 5368740 5368741 5368743 5368742 5368743 5368744 10737418 999999 0 10737418 5368736 5368735 5368736 5368737 
5368709 5368709 5368709 5368709 5368709 5368730 5368729 5368730 5368731 5368745 5368746 5368747 5368746 5368743 5368742 5368741 5368742 5368733 5368732 5368731 5368732 5368754 5368753 5368752 5368753 5368746 5368745 5368744 5368745 5368743 5368742 5368741 5368742 5368744 5368743 5368744 5368745 10737418 10737418 999999 0 5368737 5368736 5368737 5368738 
5368709 5368709 5368709 5368709 5368709 5368729 5368728 5368729 5368730 5368744 5368745 5368746 5368745 5368744 5368743 5368742 5368743 5368734 5368733 5368732 5368733 5368753 5368752 5368751 5368752 5368745 5368744 5368743 5368744 5368742 5368741 5368740 5368741 5368743 5368742 5368743 5368744 0 10737418 10737418 999999 5368736 5368735 5368736 5368737 
5368709 5368709 5368709 5368709 5368709 5368723 5368722 5368723 5368724 5368722 5368723 5368722 5368721 5368738 5368737 5368736 5368737 5368740 5368739 5368738 5368739 5368731 5368730 5368729 5368730 5368729 5368728 5368727 5368728 5368718 5368719 5368720 5368719 5368729 5368728 5368729 5368730 5368737 5368738 5368737 5368736 999999 0 10737418 10737418 
5368709 5368709 5368709 5368709 5368709 5368724 5368723 5368724 5368725 5368723 5368724 5368723 5368722 5368737 5368736 5368735 5368736 5368739 5368738 5368737 5368738 5368732 5368731 5368730 5368731 5368728 5368727 5368726 5368727 5368719 5368720 5368721 5368720 5368730 5368729 5368730 5368731 5368736 5368737 5368736 5368735 10737418 999999 0 10737418 
5368709 5368709 5368709 5368709 5368709 5368723 5368722 5368723 5368724 5368724 5368725 5368724 5368723 5368736 5368735 5368734 5368735 5368738 5368737 5368736 5368737 5368733 5368732 5368731 5368732 5368727 5368726 5368725 5368726 5368720 5368721 5368722 5368721 5368731 5368730 5368731 5368732 5368735 5368736 5368735 5368734 10737418 10737418 999999 0 
5368709 5368709 5368709 5368709 5368709 5368724 5368723 5368724 5368725 5368723 5368724 5368723 5368722 5368737 5368736 5368735 5368736 5368739 5368738 5368737 5368738 5368732 5368731 5368730 5368731 5368728 5368727 5368726 5368727 5368719 5368720 5368721 5368720 5368730 5368729 5368730 5368731 5368736 5368737 5368736 5368735 0 10737418 10737418 999999 
EOF
