RobustCbss/GLKH-1.1/TMP/mtspf.pid4331.tour
NAME : mtspf.pid4331.gtsp.80530746.tour
COMMENT : Length = 80530746
COMMENT : Found by LKH [Keld Helsgaun] Fri Feb 28 13:11:22 2025
TYPE : TOUR
DIMENSION : 45
TOUR_SECTION
1
7
8
9
6
2
35
36
37
34
3
14
15
16
17
18
19
20
21
4
12
13
10
11
32
33
30
31
45
42
43
44
27
28
29
26
24
25
22
23
5
41
38
39
40
-1
EOF
